Instance Name : r102
Date : 2022-07-19
Solution
Route 1 : 73 22 72 54 24 80 12
Route 2 : 26 39 23 67 55 4 25
Route 3 : 36 47 18
Route 4 : 63 64 90 10 31
Route 5 : 62 88 8 46 17 93 59
Route 6 : 92 98 85 16 86 91 97 13
Route 7 : 40 53
Route 8 : 83 45 61 84 5 60 89
Route 9 : 52 7 11 19 49 48 82
Route 10 : 14 44 38 43 100 37
Route 11 : 27 69 76 79 68
Route 12 : 94 96 99 6
Route 13 : 28 29 78 34 35 3 77
Route 14 : 87 57 2 58
Route 15 : 95 42 15 41 75 56 74 21
Route 16 : 50 33 30 51 9 66 1
Route 17 : 65 71 81 20 32 70
